Maximize
  - 3.7708081667232 edge_0_1_0_0 - 0.323232 edge_0_3_0_0
   - 2.7969836788026 edge_0_5_0_0 - 2.6865567071909 edge_0_8_0_0
   - 2.1165398730076 edge_0_9_0_0 - 3.0123795990435 edge_0_20_0_0
   + 0.22111784913856 edge_1_2_0_0 - 0.012435742829376 edge_1_3_0_0
   - 0.1878963214778143 edge_1_7_0_0 + 0.024006618191296 edge_2_1_0_0
   - 0.103336 edge_2_3_0_0 - 0.50488785895086 edge_2_5_0_0
   - 0.73842112081967 edge_2_7_0_0 - 1.16473411205 edge_2_8_0_0
   + 1.2151717714688 edge_3_1_0_0 + 1.9691 edge_3_2_0_0
   + 0.6198076449411 edge_3_4_0_0 + 2.6711139632688 edge_3_5_0_0
   + 2.8774475315458 edge_3_7_0_0 + 2.5536370503694 edge_3_8_0_0
   + 1.135849931849 edge_3_9_0_0 - 0.40236856020944 edge_3_10_0_0
   + 1.082649935041 edge_3_12_0_0 + 1.5602527112484 edge_3_14_0_0
   + 0.34131607482 edge_3_15_0_0 - 1.2673763233062 edge_3_16_0_0
   + 0.6392782009012501 edge_3_18_0_0 + 0.8341103195287199 edge_3_19_0_0
   - 0.77882679839235 edge_3_20_0_0 + 5.261156527634401 edge_3_21_0_0
   - 0.3431771752022378 edge_4_7_0_0 + 0.4723400936814558 edge_5_1_0_0
   + 0.6034636361691 edge_5_2_0_0 + 1.0887175394928 edge_5_3_0_0
   + 4.099027434640062 edge_5_4_0_0 + 0.6241681450576441 edge_5_7_0_0
   + 0.7309904755392217 edge_5_8_0_0 + 1.039457588452941 edge_5_9_0_0
   - 0.8019262877531038 edge_5_10_0_0 + 0.3603201640553289 edge_5_12_0_0
   - 0.3257235678728529 edge_5_14_0_0 - 1.203063445650468 edge_5_15_0_0
   - 1.222185710116553 edge_5_18_0_0 - 1.190289268962573 edge_5_19_0_0
   - 1.65531757321063 edge_5_20_0_0 + 0.893020392374172 edge_5_21_0_0
   - 0.9450643080803767 edge_7_5_0_0 + 0.0927977429897006 edge_7_8_0_0
   - 0.7598515625165144 edge_8_1_0_0 - 1.1597852417885 edge_8_2_0_0
   - 0.487188783521 edge_8_3_0_0 + 0.1764253264426811 edge_8_5_0_0
   + 0.460164781311567 edge_8_7_0_0 + 2.872254143415441 edge_8_9_0_0
   + 1.015079574120416 edge_8_10_0_0 + 2.299434942163095 edge_8_12_0_0
   + 1.33553347730548 edge_8_14_0_0 + 1.746011332919858 edge_8_15_0_0
   + 0.0675044845391903 edge_8_16_0_0 + 1.661058733222788 edge_8_18_0_0
   + 1.034004834616092 edge_8_19_0_0 + 0.9052631832940492 edge_8_20_0_0
   + 1.382903394982557 edge_8_21_0_0 - 0.7430254457195906 edge_9_1_0_0
   - 0.9117339452959601 edge_9_2_0_0 - 0.6598939604063599 edge_9_3_0_0
   + 1.138137578427741 edge_9_4_0_0 + 0.0566689685276957 edge_9_5_0_0
   - 0.0786682814548588 edge_9_7_0_0 + 0.6923619046186833 edge_9_8_0_0
   + 0.3460033162419798 edge_9_10_0_0 + 2.434269707887609 edge_9_12_0_0
   + 0.8077871813173662 edge_9_14_0_0 + 0.7216086581079778 edge_9_15_0_0
   - 0.5001249206481629 edge_9_16_0_0 + 0.426328441509042 edge_9_18_0_0
   - 0.1251588380019093 edge_9_19_0_0 - 0.0418880185407887 edge_9_20_0_0
   + 1.602568846149664 edge_9_21_0_0 - 0.1011157822706827 edge_10_9_0_0
   + 0.5530053461851272 edge_10_12_0_0 - 0.3051519462841745 edge_10_14_0_0
   - 0.7676993031627043 edge_10_15_0_0 - 1.163393583466781 edge_12_1_0_0
   - 1.8643798881372 edge_12_2_0_0 - 1.2990299220582 edge_12_3_0_0
   - 0.8502547796267101 edge_12_4_0_0 - 0.5850246427397594 edge_12_5_0_0
   - 0.5946144563616005 edge_12_7_0_0 - 0.3779806910897472 edge_12_8_0_0
   + 0.2525369696955609 edge_12_9_0_0 + 2.61424683665498 edge_12_10_0_0
   + 3.947200238487172 edge_12_11_0_0 + 0.495642652604299 edge_12_14_0_0
   + 1.075347568839142 edge_12_15_0_0 - 0.5349189899705287 edge_12_16_0_0
   + 0.39956747656595 edge_12_18_0_0 - 0.3173048427790283 edge_12_19_0_0
   - 0.0362903496972349 edge_12_20_0_0 + 0.9706333011435585 edge_12_21_0_0
   - 0.4789810013276382 edge_14_12_0_0 - 1.39552466257782 edge_15_1_0_0
   - 2.04599647077 edge_15_2_0_0 - 1.421953647345 edge_15_3_0_0
   - 0.3669759503509778 edge_15_5_0_0 - 0.6940845690299322 edge_15_8_0_0
   + 0.1109007179729565 edge_15_9_0_0 + 0.5555526452622568 edge_15_10_0_0
   + 1.903579401844727 edge_15_11_0_0 + 0.6999769081738829 edge_15_12_0_0
   + 0.480440879985541 edge_15_14_0_0 - 0.063571833697735 edge_15_16_0_0
   + 1.538220387462112 edge_15_18_0_0 + 0.1249734188180357 edge_15_19_0_0
   + 1.178488904975636 edge_15_20_0_0 + 1.851617484071654 edge_15_21_0_0
   + 0.6357717951898727 edge_16_18_0_0 - 0.4448486895951708 edge_16_19_0_0
   - 0.055758001612262 edge_16_20_0_0 - 0.0312382599276281 edge_17_16_0_0
   - 0.6290528312137781 edge_18_10_0_0 + 0.4380058472559666 edge_18_11_0_0
   + 0.3734052390278678 edge_18_15_0_0 + 2.71557614965447 edge_18_16_0_0
   + 4.489275407649426 edge_18_17_0_0 + 0.4336706678476276 edge_18_19_0_0
   + 2.042399714940665 edge_18_20_0_0 + 0.9937001020299998 edge_18_21_0_0
   - 1.008201543508723 edge_19_1_0_0 - 1.5962887509192 edge_19_2_0_0
   - 2.764541969748 edge_19_3_0_0 - 1.05325741186167 edge_19_5_0_0
   - 1.418635038686666 edge_19_8_0_0 + 0.0173777055908456 edge_19_9_0_0
   + 0.0501580677857763 edge_19_10_0_0 + 0.0557208114729111 edge_19_12_0_0
   - 0.1512463227035641 edge_19_14_0_0 + 0.666034267385041 edge_19_15_0_0
   + 0.7108832325733789 edge_19_16_0_0 + 1.477893055289414 edge_19_17_0_0
   + 2.129495609047961 edge_19_18_0_0 - 1.37822914090263 edge_20_1_0_0
   - 1.644061577383 edge_20_2_0_0 - 0.8982690069627001 edge_20_3_0_0
   - 0.6272169240513381 edge_20_5_0_0 - 0.303634587932314 edge_20_8_0_0
   + 0.0851753042959804 edge_20_9_0_0 + 0.4706335472535249 edge_20_10_0_0
   + 0.7151805005044534 edge_20_11_0_0 + 0.1193252041451273 edge_20_12_0_0
   - 0.0574165993638477 edge_20_14_0_0 + 0.6792733130961746 edge_20_15_0_0
   + 2.836833561942265 edge_20_16_0_0 + 2.83490229579851 edge_20_17_0_0
   + 1.363866420821843 edge_20_18_0_0 + 3.493008690022739 edge_20_19_0_0
   + 1.659380124162995 edge_20_21_0_0
Subject To
 one_parent_1: edge_0_1_0_0 + edge_2_1_0_0 + edge_3_1_0_0 + edge_5_1_0_0
   + edge_8_1_0_0 + edge_9_1_0_0 + edge_12_1_0_0 + edge_15_1_0_0
   + edge_19_1_0_0 + edge_20_1_0_0 = 1
 consume_one_flow_unit_1: flow_0_1_0_0 - flow_1_2_0_0 - flow_1_3_0_0
   - flow_1_7_0_0 + flow_2_1_0_0 + flow_3_1_0_0 + flow_5_1_0_0
   + flow_8_1_0_0 + flow_9_1_0_0 + flow_12_1_0_0 + flow_15_1_0_0
   + flow_19_1_0_0 + flow_20_1_0_0 = 1
 one_parent_2: edge_1_2_0_0 + edge_3_2_0_0 + edge_5_2_0_0 + edge_8_2_0_0
   + edge_9_2_0_0 + edge_12_2_0_0 + edge_15_2_0_0 + edge_19_2_0_0
   + edge_20_2_0_0 = 1
 consume_one_flow_unit_2: flow_1_2_0_0 - flow_2_1_0_0 - flow_2_3_0_0
   - flow_2_5_0_0 - flow_2_7_0_0 - flow_2_8_0_0 + flow_3_2_0_0
   + flow_5_2_0_0 + flow_8_2_0_0 + flow_9_2_0_0 + flow_12_2_0_0
   + flow_15_2_0_0 + flow_19_2_0_0 + flow_20_2_0_0 = 1
 one_parent_3: edge_0_3_0_0 + edge_1_3_0_0 + edge_2_3_0_0 + edge_5_3_0_0
   + edge_8_3_0_0 + edge_9_3_0_0 + edge_12_3_0_0 + edge_15_3_0_0
   + edge_19_3_0_0 + edge_20_3_0_0 = 1
 consume_one_flow_unit_3: flow_0_3_0_0 + flow_1_3_0_0 + flow_2_3_0_0
   - flow_3_1_0_0 - flow_3_2_0_0 - flow_3_4_0_0 - flow_3_5_0_0
   - flow_3_7_0_0 - flow_3_8_0_0 - flow_3_9_0_0 - flow_3_10_0_0
   - flow_3_12_0_0 - flow_3_14_0_0 - flow_3_15_0_0 - flow_3_16_0_0
   - flow_3_18_0_0 - flow_3_19_0_0 - flow_3_20_0_0 - flow_3_21_0_0
   + flow_5_3_0_0 + flow_8_3_0_0 + flow_9_3_0_0 + flow_12_3_0_0
   + flow_15_3_0_0 + flow_19_3_0_0 + flow_20_3_0_0 = 1
 one_parent_4: edge_3_4_0_0 + edge_5_4_0_0 + edge_9_4_0_0 + edge_12_4_0_0
   = 1
 consume_one_flow_unit_4: flow_3_4_0_0 - flow_4_7_0_0 + flow_5_4_0_0
   + flow_9_4_0_0 + flow_12_4_0_0 = 1
 one_parent_5: edge_0_5_0_0 + edge_2_5_0_0 + edge_3_5_0_0 + edge_7_5_0_0
   + edge_8_5_0_0 + edge_9_5_0_0 + edge_12_5_0_0 + edge_15_5_0_0
   + edge_19_5_0_0 + edge_20_5_0_0 = 1
 consume_one_flow_unit_5: flow_0_5_0_0 + flow_2_5_0_0 + flow_3_5_0_0
   - flow_5_1_0_0 - flow_5_2_0_0 - flow_5_3_0_0 - flow_5_4_0_0
   - flow_5_7_0_0 - flow_5_8_0_0 - flow_5_9_0_0 - flow_5_10_0_0
   - flow_5_12_0_0 - flow_5_14_0_0 - flow_5_15_0_0 - flow_5_18_0_0
   - flow_5_19_0_0 - flow_5_20_0_0 - flow_5_21_0_0 + flow_7_5_0_0
   + flow_8_5_0_0 + flow_9_5_0_0 + flow_12_5_0_0 + flow_15_5_0_0
   + flow_19_5_0_0 + flow_20_5_0_0 = 1
 one_parent_6: = 1
 consume_one_flow_unit_6: = 1
 one_parent_7: edge_1_7_0_0 + edge_2_7_0_0 + edge_3_7_0_0 + edge_4_7_0_0
   + edge_5_7_0_0 + edge_8_7_0_0 + edge_9_7_0_0 + edge_12_7_0_0 = 1
 consume_one_flow_unit_7: flow_1_7_0_0 + flow_2_7_0_0 + flow_3_7_0_0
   + flow_4_7_0_0 + flow_5_7_0_0 - flow_7_5_0_0 - flow_7_8_0_0
   + flow_8_7_0_0 + flow_9_7_0_0 + flow_12_7_0_0 = 1
 one_parent_8: edge_0_8_0_0 + edge_2_8_0_0 + edge_3_8_0_0 + edge_5_8_0_0
   + edge_7_8_0_0 + edge_9_8_0_0 + edge_12_8_0_0 + edge_15_8_0_0
   + edge_19_8_0_0 + edge_20_8_0_0 = 1
 consume_one_flow_unit_8: flow_0_8_0_0 + flow_2_8_0_0 + flow_3_8_0_0
   + flow_5_8_0_0 + flow_7_8_0_0 - flow_8_1_0_0 - flow_8_2_0_0
   - flow_8_3_0_0 - flow_8_5_0_0 - flow_8_7_0_0 - flow_8_9_0_0
   - flow_8_10_0_0 - flow_8_12_0_0 - flow_8_14_0_0 - flow_8_15_0_0
   - flow_8_16_0_0 - flow_8_18_0_0 - flow_8_19_0_0 - flow_8_20_0_0
   - flow_8_21_0_0 + flow_9_8_0_0 + flow_12_8_0_0 + flow_15_8_0_0
   + flow_19_8_0_0 + flow_20_8_0_0 = 1
 one_parent_9: edge_0_9_0_0 + edge_3_9_0_0 + edge_5_9_0_0 + edge_8_9_0_0
   + edge_10_9_0_0 + edge_12_9_0_0 + edge_15_9_0_0 + edge_19_9_0_0
   + edge_20_9_0_0 = 1
 consume_one_flow_unit_9: flow_0_9_0_0 + flow_3_9_0_0 + flow_5_9_0_0
   + flow_8_9_0_0 - flow_9_1_0_0 - flow_9_2_0_0 - flow_9_3_0_0
   - flow_9_4_0_0 - flow_9_5_0_0 - flow_9_7_0_0 - flow_9_8_0_0
   - flow_9_10_0_0 - flow_9_12_0_0 - flow_9_14_0_0 - flow_9_15_0_0
   - flow_9_16_0_0 - flow_9_18_0_0 - flow_9_19_0_0 - flow_9_20_0_0
   - flow_9_21_0_0 + flow_10_9_0_0 + flow_12_9_0_0 + flow_15_9_0_0
   + flow_19_9_0_0 + flow_20_9_0_0 = 1
 one_parent_10: edge_3_10_0_0 + edge_5_10_0_0 + edge_8_10_0_0
   + edge_9_10_0_0 + edge_12_10_0_0 + edge_15_10_0_0 + edge_18_10_0_0
   + edge_19_10_0_0 + edge_20_10_0_0 = 1
 consume_one_flow_unit_10: flow_3_10_0_0 + flow_5_10_0_0 + flow_8_10_0_0
   + flow_9_10_0_0 - flow_10_9_0_0 - flow_10_12_0_0 - flow_10_14_0_0
   - flow_10_15_0_0 + flow_12_10_0_0 + flow_15_10_0_0 + flow_18_10_0_0
   + flow_19_10_0_0 + flow_20_10_0_0 = 1
 one_parent_11: edge_12_11_0_0 + edge_15_11_0_0 + edge_18_11_0_0
   + edge_20_11_0_0 = 1
 consume_one_flow_unit_11: flow_12_11_0_0 + flow_15_11_0_0 + flow_18_11_0_0
   + flow_20_11_0_0 = 1
 one_parent_12: edge_3_12_0_0 + edge_5_12_0_0 + edge_8_12_0_0
   + edge_9_12_0_0 + edge_10_12_0_0 + edge_14_12_0_0 + edge_15_12_0_0
   + edge_19_12_0_0 + edge_20_12_0_0 = 1
 consume_one_flow_unit_12: flow_3_12_0_0 + flow_5_12_0_0 + flow_8_12_0_0
   + flow_9_12_0_0 + flow_10_12_0_0 - flow_12_1_0_0 - flow_12_2_0_0
   - flow_12_3_0_0 - flow_12_4_0_0 - flow_12_5_0_0 - flow_12_7_0_0
   - flow_12_8_0_0 - flow_12_9_0_0 - flow_12_10_0_0 - flow_12_11_0_0
   - flow_12_14_0_0 - flow_12_15_0_0 - flow_12_16_0_0 - flow_12_18_0_0
   - flow_12_19_0_0 - flow_12_20_0_0 - flow_12_21_0_0 + flow_14_12_0_0
   + flow_15_12_0_0 + flow_19_12_0_0 + flow_20_12_0_0 = 1
 one_parent_13: = 1
 consume_one_flow_unit_13: = 1
 one_parent_14: edge_3_14_0_0 + edge_5_14_0_0 + edge_8_14_0_0
   + edge_9_14_0_0 + edge_10_14_0_0 + edge_12_14_0_0 + edge_15_14_0_0
   + edge_19_14_0_0 + edge_20_14_0_0 = 1
 consume_one_flow_unit_14: flow_3_14_0_0 + flow_5_14_0_0 + flow_8_14_0_0
   + flow_9_14_0_0 + flow_10_14_0_0 + flow_12_14_0_0 - flow_14_12_0_0
   + flow_15_14_0_0 + flow_19_14_0_0 + flow_20_14_0_0 = 1
 one_parent_15: edge_3_15_0_0 + edge_5_15_0_0 + edge_8_15_0_0
   + edge_9_15_0_0 + edge_10_15_0_0 + edge_12_15_0_0 + edge_18_15_0_0
   + edge_19_15_0_0 + edge_20_15_0_0 = 1
 consume_one_flow_unit_15: flow_3_15_0_0 + flow_5_15_0_0 + flow_8_15_0_0
   + flow_9_15_0_0 + flow_10_15_0_0 + flow_12_15_0_0 - flow_15_1_0_0
   - flow_15_2_0_0 - flow_15_3_0_0 - flow_15_5_0_0 - flow_15_8_0_0
   - flow_15_9_0_0 - flow_15_10_0_0 - flow_15_11_0_0 - flow_15_12_0_0
   - flow_15_14_0_0 - flow_15_16_0_0 - flow_15_18_0_0 - flow_15_19_0_0
   - flow_15_20_0_0 - flow_15_21_0_0 + flow_18_15_0_0 + flow_19_15_0_0
   + flow_20_15_0_0 = 1
 one_parent_16: edge_3_16_0_0 + edge_8_16_0_0 + edge_9_16_0_0
   + edge_12_16_0_0 + edge_15_16_0_0 + edge_17_16_0_0 + edge_18_16_0_0
   + edge_19_16_0_0 + edge_20_16_0_0 = 1
 consume_one_flow_unit_16: flow_3_16_0_0 + flow_8_16_0_0 + flow_9_16_0_0
   + flow_12_16_0_0 + flow_15_16_0_0 - flow_16_18_0_0 - flow_16_19_0_0
   - flow_16_20_0_0 + flow_17_16_0_0 + flow_18_16_0_0 + flow_19_16_0_0
   + flow_20_16_0_0 = 1
 one_parent_17: edge_18_17_0_0 + edge_19_17_0_0 + edge_20_17_0_0 = 1
 consume_one_flow_unit_17: - flow_17_16_0_0 + flow_18_17_0_0
   + flow_19_17_0_0 + flow_20_17_0_0 = 1
 one_parent_18: edge_3_18_0_0 + edge_5_18_0_0 + edge_8_18_0_0
   + edge_9_18_0_0 + edge_12_18_0_0 + edge_15_18_0_0 + edge_16_18_0_0
   + edge_19_18_0_0 + edge_20_18_0_0 = 1
 consume_one_flow_unit_18: flow_3_18_0_0 + flow_5_18_0_0 + flow_8_18_0_0
   + flow_9_18_0_0 + flow_12_18_0_0 + flow_15_18_0_0 + flow_16_18_0_0
   - flow_18_10_0_0 - flow_18_11_0_0 - flow_18_15_0_0 - flow_18_16_0_0
   - flow_18_17_0_0 - flow_18_19_0_0 - flow_18_20_0_0 - flow_18_21_0_0
   + flow_19_18_0_0 + flow_20_18_0_0 = 1
 one_parent_19: edge_3_19_0_0 + edge_5_19_0_0 + edge_8_19_0_0
   + edge_9_19_0_0 + edge_12_19_0_0 + edge_15_19_0_0 + edge_16_19_0_0
   + edge_18_19_0_0 + edge_20_19_0_0 = 1
 consume_one_flow_unit_19: flow_3_19_0_0 + flow_5_19_0_0 + flow_8_19_0_0
   + flow_9_19_0_0 + flow_12_19_0_0 + flow_15_19_0_0 + flow_16_19_0_0
   + flow_18_19_0_0 - flow_19_1_0_0 - flow_19_2_0_0 - flow_19_3_0_0
   - flow_19_5_0_0 - flow_19_8_0_0 - flow_19_9_0_0 - flow_19_10_0_0
   - flow_19_12_0_0 - flow_19_14_0_0 - flow_19_15_0_0 - flow_19_16_0_0
   - flow_19_17_0_0 - flow_19_18_0_0 + flow_20_19_0_0 = 1
 one_parent_20: edge_0_20_0_0 + edge_3_20_0_0 + edge_5_20_0_0
   + edge_8_20_0_0 + edge_9_20_0_0 + edge_12_20_0_0 + edge_15_20_0_0
   + edge_16_20_0_0 + edge_18_20_0_0 = 1
 consume_one_flow_unit_20: flow_0_20_0_0 + flow_3_20_0_0 + flow_5_20_0_0
   + flow_8_20_0_0 + flow_9_20_0_0 + flow_12_20_0_0 + flow_15_20_0_0
   + flow_16_20_0_0 + flow_18_20_0_0 - flow_20_1_0_0 - flow_20_2_0_0
   - flow_20_3_0_0 - flow_20_5_0_0 - flow_20_8_0_0 - flow_20_9_0_0
   - flow_20_10_0_0 - flow_20_11_0_0 - flow_20_12_0_0 - flow_20_14_0_0
   - flow_20_15_0_0 - flow_20_16_0_0 - flow_20_17_0_0 - flow_20_18_0_0
   - flow_20_19_0_0 - flow_20_21_0_0 = 1
 one_parent_21: edge_3_21_0_0 + edge_5_21_0_0 + edge_8_21_0_0
   + edge_9_21_0_0 + edge_12_21_0_0 + edge_15_21_0_0 + edge_18_21_0_0
   + edge_20_21_0_0 = 1
 consume_one_flow_unit_21: flow_3_21_0_0 + flow_5_21_0_0 + flow_8_21_0_0
   + flow_9_21_0_0 + flow_12_21_0_0 + flow_15_21_0_0 + flow_18_21_0_0
   + flow_20_21_0_0 = 1
 root_flow: flow_0_1_0_0 + flow_0_3_0_0 + flow_0_5_0_0 + flow_0_8_0_0
   + flow_0_9_0_0 + flow_0_20_0_0 = 21
 inactive_no_flow_0_1_0_0: flow_0_1_0_0 - 1000 edge_0_1_0_0 <= 0
 inactive_no_flow_0_3_0_0: flow_0_3_0_0 - 1000 edge_0_3_0_0 <= 0
 inactive_no_flow_0_5_0_0: flow_0_5_0_0 - 1000 edge_0_5_0_0 <= 0
 inactive_no_flow_0_8_0_0: flow_0_8_0_0 - 1000 edge_0_8_0_0 <= 0
 inactive_no_flow_0_9_0_0: flow_0_9_0_0 - 1000 edge_0_9_0_0 <= 0
 inactive_no_flow_0_20_0_0: flow_0_20_0_0 - 1000 edge_0_20_0_0 <= 0
 inactive_no_flow_1_2_0_0: flow_1_2_0_0 - 1000 edge_1_2_0_0 <= 0
 inactive_no_flow_1_3_0_0: flow_1_3_0_0 - 1000 edge_1_3_0_0 <= 0
 inactive_no_flow_1_7_0_0: flow_1_7_0_0 - 1000 edge_1_7_0_0 <= 0
 inactive_no_flow_2_1_0_0: flow_2_1_0_0 - 1000 edge_2_1_0_0 <= 0
 inactive_no_flow_2_3_0_0: flow_2_3_0_0 - 1000 edge_2_3_0_0 <= 0
 inactive_no_flow_2_5_0_0: flow_2_5_0_0 - 1000 edge_2_5_0_0 <= 0
 inactive_no_flow_2_7_0_0: flow_2_7_0_0 - 1000 edge_2_7_0_0 <= 0
 inactive_no_flow_2_8_0_0: flow_2_8_0_0 - 1000 edge_2_8_0_0 <= 0
 inactive_no_flow_3_1_0_0: flow_3_1_0_0 - 1000 edge_3_1_0_0 <= 0
 inactive_no_flow_3_2_0_0: flow_3_2_0_0 - 1000 edge_3_2_0_0 <= 0
 inactive_no_flow_3_4_0_0: flow_3_4_0_0 - 1000 edge_3_4_0_0 <= 0
 inactive_no_flow_3_5_0_0: flow_3_5_0_0 - 1000 edge_3_5_0_0 <= 0
 inactive_no_flow_3_7_0_0: flow_3_7_0_0 - 1000 edge_3_7_0_0 <= 0
 inactive_no_flow_3_8_0_0: flow_3_8_0_0 - 1000 edge_3_8_0_0 <= 0
 inactive_no_flow_3_9_0_0: flow_3_9_0_0 - 1000 edge_3_9_0_0 <= 0
 inactive_no_flow_3_10_0_0: flow_3_10_0_0 - 1000 edge_3_10_0_0 <= 0
 inactive_no_flow_3_12_0_0: flow_3_12_0_0 - 1000 edge_3_12_0_0 <= 0
 inactive_no_flow_3_14_0_0: flow_3_14_0_0 - 1000 edge_3_14_0_0 <= 0
 inactive_no_flow_3_15_0_0: flow_3_15_0_0 - 1000 edge_3_15_0_0 <= 0
 inactive_no_flow_3_16_0_0: flow_3_16_0_0 - 1000 edge_3_16_0_0 <= 0
 inactive_no_flow_3_18_0_0: flow_3_18_0_0 - 1000 edge_3_18_0_0 <= 0
 inactive_no_flow_3_19_0_0: flow_3_19_0_0 - 1000 edge_3_19_0_0 <= 0
 inactive_no_flow_3_20_0_0: flow_3_20_0_0 - 1000 edge_3_20_0_0 <= 0
 inactive_no_flow_3_21_0_0: flow_3_21_0_0 - 1000 edge_3_21_0_0 <= 0
 inactive_no_flow_4_7_0_0: flow_4_7_0_0 - 1000 edge_4_7_0_0 <= 0
 inactive_no_flow_5_1_0_0: flow_5_1_0_0 - 1000 edge_5_1_0_0 <= 0
 inactive_no_flow_5_2_0_0: flow_5_2_0_0 - 1000 edge_5_2_0_0 <= 0
 inactive_no_flow_5_3_0_0: flow_5_3_0_0 - 1000 edge_5_3_0_0 <= 0
 inactive_no_flow_5_4_0_0: flow_5_4_0_0 - 1000 edge_5_4_0_0 <= 0
 inactive_no_flow_5_7_0_0: flow_5_7_0_0 - 1000 edge_5_7_0_0 <= 0
 inactive_no_flow_5_8_0_0: flow_5_8_0_0 - 1000 edge_5_8_0_0 <= 0
 inactive_no_flow_5_9_0_0: flow_5_9_0_0 - 1000 edge_5_9_0_0 <= 0
 inactive_no_flow_5_10_0_0: flow_5_10_0_0 - 1000 edge_5_10_0_0 <= 0
 inactive_no_flow_5_12_0_0: flow_5_12_0_0 - 1000 edge_5_12_0_0 <= 0
 inactive_no_flow_5_14_0_0: flow_5_14_0_0 - 1000 edge_5_14_0_0 <= 0
 inactive_no_flow_5_15_0_0: flow_5_15_0_0 - 1000 edge_5_15_0_0 <= 0
 inactive_no_flow_5_18_0_0: flow_5_18_0_0 - 1000 edge_5_18_0_0 <= 0
 inactive_no_flow_5_19_0_0: flow_5_19_0_0 - 1000 edge_5_19_0_0 <= 0
 inactive_no_flow_5_20_0_0: flow_5_20_0_0 - 1000 edge_5_20_0_0 <= 0
 inactive_no_flow_5_21_0_0: flow_5_21_0_0 - 1000 edge_5_21_0_0 <= 0
 inactive_no_flow_7_5_0_0: flow_7_5_0_0 - 1000 edge_7_5_0_0 <= 0
 inactive_no_flow_7_8_0_0: flow_7_8_0_0 - 1000 edge_7_8_0_0 <= 0
 inactive_no_flow_8_1_0_0: flow_8_1_0_0 - 1000 edge_8_1_0_0 <= 0
 inactive_no_flow_8_2_0_0: flow_8_2_0_0 - 1000 edge_8_2_0_0 <= 0
 inactive_no_flow_8_3_0_0: flow_8_3_0_0 - 1000 edge_8_3_0_0 <= 0
 inactive_no_flow_8_5_0_0: flow_8_5_0_0 - 1000 edge_8_5_0_0 <= 0
 inactive_no_flow_8_7_0_0: flow_8_7_0_0 - 1000 edge_8_7_0_0 <= 0
 inactive_no_flow_8_9_0_0: flow_8_9_0_0 - 1000 edge_8_9_0_0 <= 0
 inactive_no_flow_8_10_0_0: flow_8_10_0_0 - 1000 edge_8_10_0_0 <= 0
 inactive_no_flow_8_12_0_0: flow_8_12_0_0 - 1000 edge_8_12_0_0 <= 0
 inactive_no_flow_8_14_0_0: flow_8_14_0_0 - 1000 edge_8_14_0_0 <= 0
 inactive_no_flow_8_15_0_0: flow_8_15_0_0 - 1000 edge_8_15_0_0 <= 0
 inactive_no_flow_8_16_0_0: flow_8_16_0_0 - 1000 edge_8_16_0_0 <= 0
 inactive_no_flow_8_18_0_0: flow_8_18_0_0 - 1000 edge_8_18_0_0 <= 0
 inactive_no_flow_8_19_0_0: flow_8_19_0_0 - 1000 edge_8_19_0_0 <= 0
 inactive_no_flow_8_20_0_0: flow_8_20_0_0 - 1000 edge_8_20_0_0 <= 0
 inactive_no_flow_8_21_0_0: flow_8_21_0_0 - 1000 edge_8_21_0_0 <= 0
 inactive_no_flow_9_1_0_0: flow_9_1_0_0 - 1000 edge_9_1_0_0 <= 0
 inactive_no_flow_9_2_0_0: flow_9_2_0_0 - 1000 edge_9_2_0_0 <= 0
 inactive_no_flow_9_3_0_0: flow_9_3_0_0 - 1000 edge_9_3_0_0 <= 0
 inactive_no_flow_9_4_0_0: flow_9_4_0_0 - 1000 edge_9_4_0_0 <= 0
 inactive_no_flow_9_5_0_0: flow_9_5_0_0 - 1000 edge_9_5_0_0 <= 0
 inactive_no_flow_9_7_0_0: flow_9_7_0_0 - 1000 edge_9_7_0_0 <= 0
 inactive_no_flow_9_8_0_0: flow_9_8_0_0 - 1000 edge_9_8_0_0 <= 0
 inactive_no_flow_9_10_0_0: flow_9_10_0_0 - 1000 edge_9_10_0_0 <= 0
 inactive_no_flow_9_12_0_0: flow_9_12_0_0 - 1000 edge_9_12_0_0 <= 0
 inactive_no_flow_9_14_0_0: flow_9_14_0_0 - 1000 edge_9_14_0_0 <= 0
 inactive_no_flow_9_15_0_0: flow_9_15_0_0 - 1000 edge_9_15_0_0 <= 0
 inactive_no_flow_9_16_0_0: flow_9_16_0_0 - 1000 edge_9_16_0_0 <= 0
 inactive_no_flow_9_18_0_0: flow_9_18_0_0 - 1000 edge_9_18_0_0 <= 0
 inactive_no_flow_9_19_0_0: flow_9_19_0_0 - 1000 edge_9_19_0_0 <= 0
 inactive_no_flow_9_20_0_0: flow_9_20_0_0 - 1000 edge_9_20_0_0 <= 0
 inactive_no_flow_9_21_0_0: flow_9_21_0_0 - 1000 edge_9_21_0_0 <= 0
 inactive_no_flow_10_9_0_0: flow_10_9_0_0 - 1000 edge_10_9_0_0 <= 0
 inactive_no_flow_10_12_0_0: flow_10_12_0_0 - 1000 edge_10_12_0_0 <= 0
 inactive_no_flow_10_14_0_0: flow_10_14_0_0 - 1000 edge_10_14_0_0 <= 0
 inactive_no_flow_10_15_0_0: flow_10_15_0_0 - 1000 edge_10_15_0_0 <= 0
 inactive_no_flow_12_1_0_0: flow_12_1_0_0 - 1000 edge_12_1_0_0 <= 0
 inactive_no_flow_12_2_0_0: flow_12_2_0_0 - 1000 edge_12_2_0_0 <= 0
 inactive_no_flow_12_3_0_0: flow_12_3_0_0 - 1000 edge_12_3_0_0 <= 0
 inactive_no_flow_12_4_0_0: flow_12_4_0_0 - 1000 edge_12_4_0_0 <= 0
 inactive_no_flow_12_5_0_0: flow_12_5_0_0 - 1000 edge_12_5_0_0 <= 0
 inactive_no_flow_12_7_0_0: flow_12_7_0_0 - 1000 edge_12_7_0_0 <= 0
 inactive_no_flow_12_8_0_0: flow_12_8_0_0 - 1000 edge_12_8_0_0 <= 0
 inactive_no_flow_12_9_0_0: flow_12_9_0_0 - 1000 edge_12_9_0_0 <= 0
 inactive_no_flow_12_10_0_0: flow_12_10_0_0 - 1000 edge_12_10_0_0 <= 0
 inactive_no_flow_12_11_0_0: flow_12_11_0_0 - 1000 edge_12_11_0_0 <= 0
 inactive_no_flow_12_14_0_0: flow_12_14_0_0 - 1000 edge_12_14_0_0 <= 0
 inactive_no_flow_12_15_0_0: flow_12_15_0_0 - 1000 edge_12_15_0_0 <= 0
 inactive_no_flow_12_16_0_0: flow_12_16_0_0 - 1000 edge_12_16_0_0 <= 0
 inactive_no_flow_12_18_0_0: flow_12_18_0_0 - 1000 edge_12_18_0_0 <= 0
 inactive_no_flow_12_19_0_0: flow_12_19_0_0 - 1000 edge_12_19_0_0 <= 0
 inactive_no_flow_12_20_0_0: flow_12_20_0_0 - 1000 edge_12_20_0_0 <= 0
 inactive_no_flow_12_21_0_0: flow_12_21_0_0 - 1000 edge_12_21_0_0 <= 0
 inactive_no_flow_14_12_0_0: flow_14_12_0_0 - 1000 edge_14_12_0_0 <= 0
 inactive_no_flow_15_1_0_0: flow_15_1_0_0 - 1000 edge_15_1_0_0 <= 0
 inactive_no_flow_15_2_0_0: flow_15_2_0_0 - 1000 edge_15_2_0_0 <= 0
 inactive_no_flow_15_3_0_0: flow_15_3_0_0 - 1000 edge_15_3_0_0 <= 0
 inactive_no_flow_15_5_0_0: flow_15_5_0_0 - 1000 edge_15_5_0_0 <= 0
 inactive_no_flow_15_8_0_0: flow_15_8_0_0 - 1000 edge_15_8_0_0 <= 0
 inactive_no_flow_15_9_0_0: flow_15_9_0_0 - 1000 edge_15_9_0_0 <= 0
 inactive_no_flow_15_10_0_0: flow_15_10_0_0 - 1000 edge_15_10_0_0 <= 0
 inactive_no_flow_15_11_0_0: flow_15_11_0_0 - 1000 edge_15_11_0_0 <= 0
 inactive_no_flow_15_12_0_0: flow_15_12_0_0 - 1000 edge_15_12_0_0 <= 0
 inactive_no_flow_15_14_0_0: flow_15_14_0_0 - 1000 edge_15_14_0_0 <= 0
 inactive_no_flow_15_16_0_0: flow_15_16_0_0 - 1000 edge_15_16_0_0 <= 0
 inactive_no_flow_15_18_0_0: flow_15_18_0_0 - 1000 edge_15_18_0_0 <= 0
 inactive_no_flow_15_19_0_0: flow_15_19_0_0 - 1000 edge_15_19_0_0 <= 0
 inactive_no_flow_15_20_0_0: flow_15_20_0_0 - 1000 edge_15_20_0_0 <= 0
 inactive_no_flow_15_21_0_0: flow_15_21_0_0 - 1000 edge_15_21_0_0 <= 0
 inactive_no_flow_16_18_0_0: flow_16_18_0_0 - 1000 edge_16_18_0_0 <= 0
 inactive_no_flow_16_19_0_0: flow_16_19_0_0 - 1000 edge_16_19_0_0 <= 0
 inactive_no_flow_16_20_0_0: flow_16_20_0_0 - 1000 edge_16_20_0_0 <= 0
 inactive_no_flow_17_16_0_0: flow_17_16_0_0 - 1000 edge_17_16_0_0 <= 0
 inactive_no_flow_18_10_0_0: flow_18_10_0_0 - 1000 edge_18_10_0_0 <= 0
 inactive_no_flow_18_11_0_0: flow_18_11_0_0 - 1000 edge_18_11_0_0 <= 0
 inactive_no_flow_18_15_0_0: flow_18_15_0_0 - 1000 edge_18_15_0_0 <= 0
 inactive_no_flow_18_16_0_0: flow_18_16_0_0 - 1000 edge_18_16_0_0 <= 0
 inactive_no_flow_18_17_0_0: flow_18_17_0_0 - 1000 edge_18_17_0_0 <= 0
 inactive_no_flow_18_19_0_0: flow_18_19_0_0 - 1000 edge_18_19_0_0 <= 0
 inactive_no_flow_18_20_0_0: flow_18_20_0_0 - 1000 edge_18_20_0_0 <= 0
 inactive_no_flow_18_21_0_0: flow_18_21_0_0 - 1000 edge_18_21_0_0 <= 0
 inactive_no_flow_19_1_0_0: flow_19_1_0_0 - 1000 edge_19_1_0_0 <= 0
 inactive_no_flow_19_2_0_0: flow_19_2_0_0 - 1000 edge_19_2_0_0 <= 0
 inactive_no_flow_19_3_0_0: flow_19_3_0_0 - 1000 edge_19_3_0_0 <= 0
 inactive_no_flow_19_5_0_0: flow_19_5_0_0 - 1000 edge_19_5_0_0 <= 0
 inactive_no_flow_19_8_0_0: flow_19_8_0_0 - 1000 edge_19_8_0_0 <= 0
 inactive_no_flow_19_9_0_0: flow_19_9_0_0 - 1000 edge_19_9_0_0 <= 0
 inactive_no_flow_19_10_0_0: flow_19_10_0_0 - 1000 edge_19_10_0_0 <= 0
 inactive_no_flow_19_12_0_0: flow_19_12_0_0 - 1000 edge_19_12_0_0 <= 0
 inactive_no_flow_19_14_0_0: flow_19_14_0_0 - 1000 edge_19_14_0_0 <= 0
 inactive_no_flow_19_15_0_0: flow_19_15_0_0 - 1000 edge_19_15_0_0 <= 0
 inactive_no_flow_19_16_0_0: flow_19_16_0_0 - 1000 edge_19_16_0_0 <= 0
 inactive_no_flow_19_17_0_0: flow_19_17_0_0 - 1000 edge_19_17_0_0 <= 0
 inactive_no_flow_19_18_0_0: flow_19_18_0_0 - 1000 edge_19_18_0_0 <= 0
 inactive_no_flow_20_1_0_0: flow_20_1_0_0 - 1000 edge_20_1_0_0 <= 0
 inactive_no_flow_20_2_0_0: flow_20_2_0_0 - 1000 edge_20_2_0_0 <= 0
 inactive_no_flow_20_3_0_0: flow_20_3_0_0 - 1000 edge_20_3_0_0 <= 0
 inactive_no_flow_20_5_0_0: flow_20_5_0_0 - 1000 edge_20_5_0_0 <= 0
 inactive_no_flow_20_8_0_0: flow_20_8_0_0 - 1000 edge_20_8_0_0 <= 0
 inactive_no_flow_20_9_0_0: flow_20_9_0_0 - 1000 edge_20_9_0_0 <= 0
 inactive_no_flow_20_10_0_0: flow_20_10_0_0 - 1000 edge_20_10_0_0 <= 0
 inactive_no_flow_20_11_0_0: flow_20_11_0_0 - 1000 edge_20_11_0_0 <= 0
 inactive_no_flow_20_12_0_0: flow_20_12_0_0 - 1000 edge_20_12_0_0 <= 0
 inactive_no_flow_20_14_0_0: flow_20_14_0_0 - 1000 edge_20_14_0_0 <= 0
 inactive_no_flow_20_15_0_0: flow_20_15_0_0 - 1000 edge_20_15_0_0 <= 0
 inactive_no_flow_20_16_0_0: flow_20_16_0_0 - 1000 edge_20_16_0_0 <= 0
 inactive_no_flow_20_17_0_0: flow_20_17_0_0 - 1000 edge_20_17_0_0 <= 0
 inactive_no_flow_20_18_0_0: flow_20_18_0_0 - 1000 edge_20_18_0_0 <= 0
 inactive_no_flow_20_19_0_0: flow_20_19_0_0 - 1000 edge_20_19_0_0 <= 0
 inactive_no_flow_20_21_0_0: flow_20_21_0_0 - 1000 edge_20_21_0_0 <= 0
Bounds
Binaries
 edge_0_1_0_0 edge_0_3_0_0 edge_0_5_0_0 edge_0_8_0_0 edge_0_9_0_0
 edge_0_20_0_0 edge_1_2_0_0 edge_1_3_0_0 edge_1_7_0_0 edge_2_1_0_0
 edge_2_3_0_0 edge_2_5_0_0 edge_2_7_0_0 edge_2_8_0_0 edge_3_1_0_0
 edge_3_2_0_0 edge_3_4_0_0 edge_3_5_0_0 edge_3_7_0_0 edge_3_8_0_0
 edge_3_9_0_0 edge_3_10_0_0 edge_3_12_0_0 edge_3_14_0_0 edge_3_15_0_0
 edge_3_16_0_0 edge_3_18_0_0 edge_3_19_0_0 edge_3_20_0_0 edge_3_21_0_0
 edge_4_7_0_0 edge_5_1_0_0 edge_5_2_0_0 edge_5_3_0_0 edge_5_4_0_0
 edge_5_7_0_0 edge_5_8_0_0 edge_5_9_0_0 edge_5_10_0_0 edge_5_12_0_0
 edge_5_14_0_0 edge_5_15_0_0 edge_5_18_0_0 edge_5_19_0_0 edge_5_20_0_0
 edge_5_21_0_0 edge_7_5_0_0 edge_7_8_0_0 edge_8_1_0_0 edge_8_2_0_0
 edge_8_3_0_0 edge_8_5_0_0 edge_8_7_0_0 edge_8_9_0_0 edge_8_10_0_0
 edge_8_12_0_0 edge_8_14_0_0 edge_8_15_0_0 edge_8_16_0_0 edge_8_18_0_0
 edge_8_19_0_0 edge_8_20_0_0 edge_8_21_0_0 edge_9_1_0_0 edge_9_2_0_0
 edge_9_3_0_0 edge_9_4_0_0 edge_9_5_0_0 edge_9_7_0_0 edge_9_8_0_0
 edge_9_10_0_0 edge_9_12_0_0 edge_9_14_0_0 edge_9_15_0_0 edge_9_16_0_0
 edge_9_18_0_0 edge_9_19_0_0 edge_9_20_0_0 edge_9_21_0_0 edge_10_9_0_0
 edge_10_12_0_0 edge_10_14_0_0 edge_10_15_0_0 edge_12_1_0_0 edge_12_2_0_0
 edge_12_3_0_0 edge_12_4_0_0 edge_12_5_0_0 edge_12_7_0_0 edge_12_8_0_0
 edge_12_9_0_0 edge_12_10_0_0 edge_12_11_0_0 edge_12_14_0_0 edge_12_15_0_0
 edge_12_16_0_0 edge_12_18_0_0 edge_12_19_0_0 edge_12_20_0_0 edge_12_21_0_0
 edge_14_12_0_0 edge_15_1_0_0 edge_15_2_0_0 edge_15_3_0_0 edge_15_5_0_0
 edge_15_8_0_0 edge_15_9_0_0 edge_15_10_0_0 edge_15_11_0_0 edge_15_12_0_0
 edge_15_14_0_0 edge_15_16_0_0 edge_15_18_0_0 edge_15_19_0_0 edge_15_20_0_0
 edge_15_21_0_0 edge_16_18_0_0 edge_16_19_0_0 edge_16_20_0_0 edge_17_16_0_0
 edge_18_10_0_0 edge_18_11_0_0 edge_18_15_0_0 edge_18_16_0_0 edge_18_17_0_0
 edge_18_19_0_0 edge_18_20_0_0 edge_18_21_0_0 edge_19_1_0_0 edge_19_2_0_0
 edge_19_3_0_0 edge_19_5_0_0 edge_19_8_0_0 edge_19_9_0_0 edge_19_10_0_0
 edge_19_12_0_0 edge_19_14_0_0 edge_19_15_0_0 edge_19_16_0_0 edge_19_17_0_0
 edge_19_18_0_0 edge_20_1_0_0 edge_20_2_0_0 edge_20_3_0_0 edge_20_5_0_0
 edge_20_8_0_0 edge_20_9_0_0 edge_20_10_0_0 edge_20_11_0_0 edge_20_12_0_0
 edge_20_14_0_0 edge_20_15_0_0 edge_20_16_0_0 edge_20_17_0_0 edge_20_18_0_0
 edge_20_19_0_0 edge_20_21_0_0
End
